data;

set A := 961709689 157436819 838012741 139405319 326354875 508913109 819002215 275424995 379858830 417836462 61666483 180590494 320438325 706362485 175923221 215674592 116466390 403960368 209768317 826976546 975257016 986071514 361455643 283733743 42579077 85056415 6060193 781028643 928585352 508514590 29200772 225411375 330884336 526239654 230878011 311436114 825752843 602669176 942001278 550153441 423629451 438070027 948061319 439969919 903294404 19528002 579077972 775253605 664331243 204885943 535804386 429674651;
param T := 13000000000;

end;
